NAME : tsp20_23.155.tour
COMMENT : Length = 155
COMMENT : Found by LKH [Keld Helsgaun]
TYPE : TOUR
DIMENSION : 20
TOUR_SECTION
1
14
4
12
5
17
11
19
15
18
6
8
10
16
7
3
9
2
13
20
-1
EOF
